(set-logic QF_LRA)
(declare-fun X0 () Real )
(declare-fun Y0 () Real )
(declare-fun X1 () Real )
(declare-fun Y1 () Real )
(declare-fun X2 () Real )
(declare-fun Y2 () Real )
(declare-fun X3 () Real )
(declare-fun Y3 () Real )
(declare-fun X4 () Real )
(declare-fun Y4 () Real )
(declare-fun X5 () Real )
(declare-fun Y5 () Real )
(declare-fun X6 () Real )
(declare-fun Y6 () Real )
(declare-fun X7 () Real )
(declare-fun Y7 () Real )
(declare-fun X8 () Real )
(declare-fun Y8 () Real )
(declare-fun X9 () Real )
(declare-fun Y9 () Real )
(declare-fun X10 () Real )
(declare-fun Y10 () Real )
(declare-fun X11 () Real )
(declare-fun Y11 () Real )
(declare-fun X12 () Real )
(declare-fun Y12 () Real )
(declare-fun X13 () Real )
(declare-fun Y13 () Real )
(declare-fun X14 () Real )
(declare-fun Y14 () Real )
(declare-fun Z () Real )
(declare-fun k () Real )
(assert (let
(( $goal (>= Z k) ))
(let
((
$phi ( and 
( or ( <= ( + X0 51 ) X1 )  ( <= ( + X1 38 ) X0 )  ( <= ( + Y0 20 ) Y1 )  ( <= ( + Y1 80 ) Y0 )  )
( or ( <= ( + X0 51 ) X2 )  ( <= ( + X2 76 ) X0 )  ( <= ( + Y0 20 ) Y2 )  ( <= ( + Y2 64 ) Y0 )  )
( or ( <= ( + X0 51 ) X3 )  ( <= ( + X3 52 ) X0 )  ( <= ( + Y0 20 ) Y3 )  ( <= ( + Y3 69 ) Y0 )  )
( or ( <= ( + X0 51 ) X4 )  ( <= ( + X4 20 ) X0 )  ( <= ( + Y0 20 ) Y4 )  ( <= ( + Y4 19 ) Y0 )  )
( or ( <= ( + X0 51 ) X5 )  ( <= ( + X5 66 ) X0 )  ( <= ( + Y0 20 ) Y5 )  ( <= ( + Y5 4 ) Y0 )  )
( or ( <= ( + X0 51 ) X6 )  ( <= ( + X6 30 ) X0 )  ( <= ( + Y0 20 ) Y6 )  ( <= ( + Y6 28 ) Y0 )  )
( or ( <= ( + X0 51 ) X7 )  ( <= ( + X7 38 ) X0 )  ( <= ( + Y0 20 ) Y7 )  ( <= ( + Y7 25 ) Y0 )  )
( or ( <= ( + X0 51 ) X8 )  ( <= ( + X8 99 ) X0 )  ( <= ( + Y0 20 ) Y8 )  ( <= ( + Y8 11 ) Y0 )  )
( or ( <= ( + X0 51 ) X9 )  ( <= ( + X9 78 ) X0 )  ( <= ( + Y0 20 ) Y9 )  ( <= ( + Y9 47 ) Y0 )  )
( or ( <= ( + X0 51 ) X10 )  ( <= ( + X10 15 ) X0 )  ( <= ( + Y0 20 ) Y10 )  ( <= ( + Y10 39 ) Y0 )  )
( or ( <= ( + X0 51 ) X11 )  ( <= ( + X11 12 ) X0 )  ( <= ( + Y0 20 ) Y11 )  ( <= ( + Y11 61 ) Y0 )  )
( or ( <= ( + X0 51 ) X12 )  ( <= ( + X12 35 ) X0 )  ( <= ( + Y0 20 ) Y12 )  ( <= ( + Y12 67 ) Y0 )  )
( or ( <= ( + X0 51 ) X13 )  ( <= ( + X13 69 ) X0 )  ( <= ( + Y0 20 ) Y13 )  ( <= ( + Y13 56 ) Y0 )  )
( or ( <= ( + X0 51 ) X14 )  ( <= ( + X14 9 ) X0 )  ( <= ( + Y0 20 ) Y14 )  ( <= ( + Y14 50 ) Y0 )  )
( or ( <= ( + X1 38 ) X2 )  ( <= ( + X2 76 ) X1 )  ( <= ( + Y1 80 ) Y2 )  ( <= ( + Y2 64 ) Y1 )  )
( or ( <= ( + X1 38 ) X3 )  ( <= ( + X3 52 ) X1 )  ( <= ( + Y1 80 ) Y3 )  ( <= ( + Y3 69 ) Y1 )  )
( or ( <= ( + X1 38 ) X4 )  ( <= ( + X4 20 ) X1 )  ( <= ( + Y1 80 ) Y4 )  ( <= ( + Y4 19 ) Y1 )  )
( or ( <= ( + X1 38 ) X5 )  ( <= ( + X5 66 ) X1 )  ( <= ( + Y1 80 ) Y5 )  ( <= ( + Y5 4 ) Y1 )  )
( or ( <= ( + X1 38 ) X6 )  ( <= ( + X6 30 ) X1 )  ( <= ( + Y1 80 ) Y6 )  ( <= ( + Y6 28 ) Y1 )  )
( or ( <= ( + X1 38 ) X7 )  ( <= ( + X7 38 ) X1 )  ( <= ( + Y1 80 ) Y7 )  ( <= ( + Y7 25 ) Y1 )  )
( or ( <= ( + X1 38 ) X8 )  ( <= ( + X8 99 ) X1 )  ( <= ( + Y1 80 ) Y8 )  ( <= ( + Y8 11 ) Y1 )  )
( or ( <= ( + X1 38 ) X9 )  ( <= ( + X9 78 ) X1 )  ( <= ( + Y1 80 ) Y9 )  ( <= ( + Y9 47 ) Y1 )  )
( or ( <= ( + X1 38 ) X10 )  ( <= ( + X10 15 ) X1 )  ( <= ( + Y1 80 ) Y10 )  ( <= ( + Y10 39 ) Y1 )  )
( or ( <= ( + X1 38 ) X11 )  ( <= ( + X11 12 ) X1 )  ( <= ( + Y1 80 ) Y11 )  ( <= ( + Y11 61 ) Y1 )  )
( or ( <= ( + X1 38 ) X12 )  ( <= ( + X12 35 ) X1 )  ( <= ( + Y1 80 ) Y12 )  ( <= ( + Y12 67 ) Y1 )  )
( or ( <= ( + X1 38 ) X13 )  ( <= ( + X13 69 ) X1 )  ( <= ( + Y1 80 ) Y13 )  ( <= ( + Y13 56 ) Y1 )  )
( or ( <= ( + X1 38 ) X14 )  ( <= ( + X14 9 ) X1 )  ( <= ( + Y1 80 ) Y14 )  ( <= ( + Y14 50 ) Y1 )  )
( or ( <= ( + X2 76 ) X3 )  ( <= ( + X3 52 ) X2 )  ( <= ( + Y2 64 ) Y3 )  ( <= ( + Y3 69 ) Y2 )  )
( or ( <= ( + X2 76 ) X4 )  ( <= ( + X4 20 ) X2 )  ( <= ( + Y2 64 ) Y4 )  ( <= ( + Y4 19 ) Y2 )  )
( or ( <= ( + X2 76 ) X5 )  ( <= ( + X5 66 ) X2 )  ( <= ( + Y2 64 ) Y5 )  ( <= ( + Y5 4 ) Y2 )  )
( or ( <= ( + X2 76 ) X6 )  ( <= ( + X6 30 ) X2 )  ( <= ( + Y2 64 ) Y6 )  ( <= ( + Y6 28 ) Y2 )  )
( or ( <= ( + X2 76 ) X7 )  ( <= ( + X7 38 ) X2 )  ( <= ( + Y2 64 ) Y7 )  ( <= ( + Y7 25 ) Y2 )  )
( or ( <= ( + X2 76 ) X8 )  ( <= ( + X8 99 ) X2 )  ( <= ( + Y2 64 ) Y8 )  ( <= ( + Y8 11 ) Y2 )  )
( or ( <= ( + X2 76 ) X9 )  ( <= ( + X9 78 ) X2 )  ( <= ( + Y2 64 ) Y9 )  ( <= ( + Y9 47 ) Y2 )  )
( or ( <= ( + X2 76 ) X10 )  ( <= ( + X10 15 ) X2 )  ( <= ( + Y2 64 ) Y10 )  ( <= ( + Y10 39 ) Y2 )  )
( or ( <= ( + X2 76 ) X11 )  ( <= ( + X11 12 ) X2 )  ( <= ( + Y2 64 ) Y11 )  ( <= ( + Y11 61 ) Y2 )  )
( or ( <= ( + X2 76 ) X12 )  ( <= ( + X12 35 ) X2 )  ( <= ( + Y2 64 ) Y12 )  ( <= ( + Y12 67 ) Y2 )  )
( or ( <= ( + X2 76 ) X13 )  ( <= ( + X13 69 ) X2 )  ( <= ( + Y2 64 ) Y13 )  ( <= ( + Y13 56 ) Y2 )  )
( or ( <= ( + X2 76 ) X14 )  ( <= ( + X14 9 ) X2 )  ( <= ( + Y2 64 ) Y14 )  ( <= ( + Y14 50 ) Y2 )  )
( or ( <= ( + X3 52 ) X4 )  ( <= ( + X4 20 ) X3 )  ( <= ( + Y3 69 ) Y4 )  ( <= ( + Y4 19 ) Y3 )  )
( or ( <= ( + X3 52 ) X5 )  ( <= ( + X5 66 ) X3 )  ( <= ( + Y3 69 ) Y5 )  ( <= ( + Y5 4 ) Y3 )  )
( or ( <= ( + X3 52 ) X6 )  ( <= ( + X6 30 ) X3 )  ( <= ( + Y3 69 ) Y6 )  ( <= ( + Y6 28 ) Y3 )  )
( or ( <= ( + X3 52 ) X7 )  ( <= ( + X7 38 ) X3 )  ( <= ( + Y3 69 ) Y7 )  ( <= ( + Y7 25 ) Y3 )  )
( or ( <= ( + X3 52 ) X8 )  ( <= ( + X8 99 ) X3 )  ( <= ( + Y3 69 ) Y8 )  ( <= ( + Y8 11 ) Y3 )  )
( or ( <= ( + X3 52 ) X9 )  ( <= ( + X9 78 ) X3 )  ( <= ( + Y3 69 ) Y9 )  ( <= ( + Y9 47 ) Y3 )  )
( or ( <= ( + X3 52 ) X10 )  ( <= ( + X10 15 ) X3 )  ( <= ( + Y3 69 ) Y10 )  ( <= ( + Y10 39 ) Y3 )  )
( or ( <= ( + X3 52 ) X11 )  ( <= ( + X11 12 ) X3 )  ( <= ( + Y3 69 ) Y11 )  ( <= ( + Y11 61 ) Y3 )  )
( or ( <= ( + X3 52 ) X12 )  ( <= ( + X12 35 ) X3 )  ( <= ( + Y3 69 ) Y12 )  ( <= ( + Y12 67 ) Y3 )  )
( or ( <= ( + X3 52 ) X13 )  ( <= ( + X13 69 ) X3 )  ( <= ( + Y3 69 ) Y13 )  ( <= ( + Y13 56 ) Y3 )  )
( or ( <= ( + X3 52 ) X14 )  ( <= ( + X14 9 ) X3 )  ( <= ( + Y3 69 ) Y14 )  ( <= ( + Y14 50 ) Y3 )  )
( or ( <= ( + X4 20 ) X5 )  ( <= ( + X5 66 ) X4 )  ( <= ( + Y4 19 ) Y5 )  ( <= ( + Y5 4 ) Y4 )  )
( or ( <= ( + X4 20 ) X6 )  ( <= ( + X6 30 ) X4 )  ( <= ( + Y4 19 ) Y6 )  ( <= ( + Y6 28 ) Y4 )  )
( or ( <= ( + X4 20 ) X7 )  ( <= ( + X7 38 ) X4 )  ( <= ( + Y4 19 ) Y7 )  ( <= ( + Y7 25 ) Y4 )  )
( or ( <= ( + X4 20 ) X8 )  ( <= ( + X8 99 ) X4 )  ( <= ( + Y4 19 ) Y8 )  ( <= ( + Y8 11 ) Y4 )  )
( or ( <= ( + X4 20 ) X9 )  ( <= ( + X9 78 ) X4 )  ( <= ( + Y4 19 ) Y9 )  ( <= ( + Y9 47 ) Y4 )  )
( or ( <= ( + X4 20 ) X10 )  ( <= ( + X10 15 ) X4 )  ( <= ( + Y4 19 ) Y10 )  ( <= ( + Y10 39 ) Y4 )  )
( or ( <= ( + X4 20 ) X11 )  ( <= ( + X11 12 ) X4 )  ( <= ( + Y4 19 ) Y11 )  ( <= ( + Y11 61 ) Y4 )  )
( or ( <= ( + X4 20 ) X12 )  ( <= ( + X12 35 ) X4 )  ( <= ( + Y4 19 ) Y12 )  ( <= ( + Y12 67 ) Y4 )  )
( or ( <= ( + X4 20 ) X13 )  ( <= ( + X13 69 ) X4 )  ( <= ( + Y4 19 ) Y13 )  ( <= ( + Y13 56 ) Y4 )  )
( or ( <= ( + X4 20 ) X14 )  ( <= ( + X14 9 ) X4 )  ( <= ( + Y4 19 ) Y14 )  ( <= ( + Y14 50 ) Y4 )  )
( or ( <= ( + X5 66 ) X6 )  ( <= ( + X6 30 ) X5 )  ( <= ( + Y5 4 ) Y6 )  ( <= ( + Y6 28 ) Y5 )  )
( or ( <= ( + X5 66 ) X7 )  ( <= ( + X7 38 ) X5 )  ( <= ( + Y5 4 ) Y7 )  ( <= ( + Y7 25 ) Y5 )  )
( or ( <= ( + X5 66 ) X8 )  ( <= ( + X8 99 ) X5 )  ( <= ( + Y5 4 ) Y8 )  ( <= ( + Y8 11 ) Y5 )  )
( or ( <= ( + X5 66 ) X9 )  ( <= ( + X9 78 ) X5 )  ( <= ( + Y5 4 ) Y9 )  ( <= ( + Y9 47 ) Y5 )  )
( or ( <= ( + X5 66 ) X10 )  ( <= ( + X10 15 ) X5 )  ( <= ( + Y5 4 ) Y10 )  ( <= ( + Y10 39 ) Y5 )  )
( or ( <= ( + X5 66 ) X11 )  ( <= ( + X11 12 ) X5 )  ( <= ( + Y5 4 ) Y11 )  ( <= ( + Y11 61 ) Y5 )  )
( or ( <= ( + X5 66 ) X12 )  ( <= ( + X12 35 ) X5 )  ( <= ( + Y5 4 ) Y12 )  ( <= ( + Y12 67 ) Y5 )  )
( or ( <= ( + X5 66 ) X13 )  ( <= ( + X13 69 ) X5 )  ( <= ( + Y5 4 ) Y13 )  ( <= ( + Y13 56 ) Y5 )  )
( or ( <= ( + X5 66 ) X14 )  ( <= ( + X14 9 ) X5 )  ( <= ( + Y5 4 ) Y14 )  ( <= ( + Y14 50 ) Y5 )  )
( or ( <= ( + X6 30 ) X7 )  ( <= ( + X7 38 ) X6 )  ( <= ( + Y6 28 ) Y7 )  ( <= ( + Y7 25 ) Y6 )  )
( or ( <= ( + X6 30 ) X8 )  ( <= ( + X8 99 ) X6 )  ( <= ( + Y6 28 ) Y8 )  ( <= ( + Y8 11 ) Y6 )  )
( or ( <= ( + X6 30 ) X9 )  ( <= ( + X9 78 ) X6 )  ( <= ( + Y6 28 ) Y9 )  ( <= ( + Y9 47 ) Y6 )  )
( or ( <= ( + X6 30 ) X10 )  ( <= ( + X10 15 ) X6 )  ( <= ( + Y6 28 ) Y10 )  ( <= ( + Y10 39 ) Y6 )  )
( or ( <= ( + X6 30 ) X11 )  ( <= ( + X11 12 ) X6 )  ( <= ( + Y6 28 ) Y11 )  ( <= ( + Y11 61 ) Y6 )  )
( or ( <= ( + X6 30 ) X12 )  ( <= ( + X12 35 ) X6 )  ( <= ( + Y6 28 ) Y12 )  ( <= ( + Y12 67 ) Y6 )  )
( or ( <= ( + X6 30 ) X13 )  ( <= ( + X13 69 ) X6 )  ( <= ( + Y6 28 ) Y13 )  ( <= ( + Y13 56 ) Y6 )  )
( or ( <= ( + X6 30 ) X14 )  ( <= ( + X14 9 ) X6 )  ( <= ( + Y6 28 ) Y14 )  ( <= ( + Y14 50 ) Y6 )  )
( or ( <= ( + X7 38 ) X8 )  ( <= ( + X8 99 ) X7 )  ( <= ( + Y7 25 ) Y8 )  ( <= ( + Y8 11 ) Y7 )  )
( or ( <= ( + X7 38 ) X9 )  ( <= ( + X9 78 ) X7 )  ( <= ( + Y7 25 ) Y9 )  ( <= ( + Y9 47 ) Y7 )  )
( or ( <= ( + X7 38 ) X10 )  ( <= ( + X10 15 ) X7 )  ( <= ( + Y7 25 ) Y10 )  ( <= ( + Y10 39 ) Y7 )  )
( or ( <= ( + X7 38 ) X11 )  ( <= ( + X11 12 ) X7 )  ( <= ( + Y7 25 ) Y11 )  ( <= ( + Y11 61 ) Y7 )  )
( or ( <= ( + X7 38 ) X12 )  ( <= ( + X12 35 ) X7 )  ( <= ( + Y7 25 ) Y12 )  ( <= ( + Y12 67 ) Y7 )  )
( or ( <= ( + X7 38 ) X13 )  ( <= ( + X13 69 ) X7 )  ( <= ( + Y7 25 ) Y13 )  ( <= ( + Y13 56 ) Y7 )  )
( or ( <= ( + X7 38 ) X14 )  ( <= ( + X14 9 ) X7 )  ( <= ( + Y7 25 ) Y14 )  ( <= ( + Y14 50 ) Y7 )  )
( or ( <= ( + X8 99 ) X9 )  ( <= ( + X9 78 ) X8 )  ( <= ( + Y8 11 ) Y9 )  ( <= ( + Y9 47 ) Y8 )  )
( or ( <= ( + X8 99 ) X10 )  ( <= ( + X10 15 ) X8 )  ( <= ( + Y8 11 ) Y10 )  ( <= ( + Y10 39 ) Y8 )  )
( or ( <= ( + X8 99 ) X11 )  ( <= ( + X11 12 ) X8 )  ( <= ( + Y8 11 ) Y11 )  ( <= ( + Y11 61 ) Y8 )  )
( or ( <= ( + X8 99 ) X12 )  ( <= ( + X12 35 ) X8 )  ( <= ( + Y8 11 ) Y12 )  ( <= ( + Y12 67 ) Y8 )  )
( or ( <= ( + X8 99 ) X13 )  ( <= ( + X13 69 ) X8 )  ( <= ( + Y8 11 ) Y13 )  ( <= ( + Y13 56 ) Y8 )  )
( or ( <= ( + X8 99 ) X14 )  ( <= ( + X14 9 ) X8 )  ( <= ( + Y8 11 ) Y14 )  ( <= ( + Y14 50 ) Y8 )  )
( or ( <= ( + X9 78 ) X10 )  ( <= ( + X10 15 ) X9 )  ( <= ( + Y9 47 ) Y10 )  ( <= ( + Y10 39 ) Y9 )  )
( or ( <= ( + X9 78 ) X11 )  ( <= ( + X11 12 ) X9 )  ( <= ( + Y9 47 ) Y11 )  ( <= ( + Y11 61 ) Y9 )  )
( or ( <= ( + X9 78 ) X12 )  ( <= ( + X12 35 ) X9 )  ( <= ( + Y9 47 ) Y12 )  ( <= ( + Y12 67 ) Y9 )  )
( or ( <= ( + X9 78 ) X13 )  ( <= ( + X13 69 ) X9 )  ( <= ( + Y9 47 ) Y13 )  ( <= ( + Y13 56 ) Y9 )  )
( or ( <= ( + X9 78 ) X14 )  ( <= ( + X14 9 ) X9 )  ( <= ( + Y9 47 ) Y14 )  ( <= ( + Y14 50 ) Y9 )  )
( or ( <= ( + X10 15 ) X11 )  ( <= ( + X11 12 ) X10 )  ( <= ( + Y10 39 ) Y11 )  ( <= ( + Y11 61 ) Y10 )  )
( or ( <= ( + X10 15 ) X12 )  ( <= ( + X12 35 ) X10 )  ( <= ( + Y10 39 ) Y12 )  ( <= ( + Y12 67 ) Y10 )  )
( or ( <= ( + X10 15 ) X13 )  ( <= ( + X13 69 ) X10 )  ( <= ( + Y10 39 ) Y13 )  ( <= ( + Y13 56 ) Y10 )  )
( or ( <= ( + X10 15 ) X14 )  ( <= ( + X14 9 ) X10 )  ( <= ( + Y10 39 ) Y14 )  ( <= ( + Y14 50 ) Y10 )  )
( or ( <= ( + X11 12 ) X12 )  ( <= ( + X12 35 ) X11 )  ( <= ( + Y11 61 ) Y12 )  ( <= ( + Y12 67 ) Y11 )  )
( or ( <= ( + X11 12 ) X13 )  ( <= ( + X13 69 ) X11 )  ( <= ( + Y11 61 ) Y13 )  ( <= ( + Y13 56 ) Y11 )  )
( or ( <= ( + X11 12 ) X14 )  ( <= ( + X14 9 ) X11 )  ( <= ( + Y11 61 ) Y14 )  ( <= ( + Y14 50 ) Y11 )  )
( or ( <= ( + X12 35 ) X13 )  ( <= ( + X13 69 ) X12 )  ( <= ( + Y12 67 ) Y13 )  ( <= ( + Y13 56 ) Y12 )  )
( or ( <= ( + X12 35 ) X14 )  ( <= ( + X14 9 ) X12 )  ( <= ( + Y12 67 ) Y14 )  ( <= ( + Y14 50 ) Y12 )  )
( or ( <= ( + X13 69 ) X14 )  ( <= ( + X14 9 ) X13 )  ( <= ( + Y13 56 ) Y14 )  ( <= ( + Y14 50 ) Y13 )  )
( >= X0 0)
( <= ( + X0 51) Z)
( >= Y0 0)
( <= ( + Y0 20 ) 193)
( >= X1 0)
( <= ( + X1 38) Z)
( >= Y1 0)
( <= ( + Y1 80 ) 193)
( >= X2 0)
( <= ( + X2 76) Z)
( >= Y2 0)
( <= ( + Y2 64 ) 193)
( >= X3 0)
( <= ( + X3 52) Z)
( >= Y3 0)
( <= ( + Y3 69 ) 193)
( >= X4 0)
( <= ( + X4 20) Z)
( >= Y4 0)
( <= ( + Y4 19 ) 193)
( >= X5 0)
( <= ( + X5 66) Z)
( >= Y5 0)
( <= ( + Y5 4 ) 193)
( >= X6 0)
( <= ( + X6 30) Z)
( >= Y6 0)
( <= ( + Y6 28 ) 193)
( >= X7 0)
( <= ( + X7 38) Z)
( >= Y7 0)
( <= ( + Y7 25 ) 193)
( >= X8 0)
( <= ( + X8 99) Z)
( >= Y8 0)
( <= ( + Y8 11 ) 193)
( >= X9 0)
( <= ( + X9 78) Z)
( >= Y9 0)
( <= ( + Y9 47 ) 193)
( >= X10 0)
( <= ( + X10 15) Z)
( >= Y10 0)
( <= ( + Y10 39 ) 193)
( >= X11 0)
( <= ( + X11 12) Z)
( >= Y11 0)
( <= ( + Y11 61 ) 193)
( >= X12 0)
( <= ( + X12 35) Z)
( >= Y12 0)
( <= ( + Y12 67 ) 193)
( >= X13 0)
( <= ( + X13 69) Z)
( >= Y13 0)
( <= ( + Y13 56 ) 193)
( >= X14 0)
( <= ( + X14 9) Z)
( >= Y14 0)
( <= ( + Y14 50 ) 193)
) )
)(=> $phi $goal))))